NAME crop rotation_srl_ilp
* Max problem is converted into Min one
ROWS
 N  OBJ
 L  constraint1_3192
 L  constraint1_3195
 L  constraint1_3194
 L  constraint1_3190
 L  constraint1_3193
 L  constraint1_3191
 L  constraint1_6174
 L  constraint1_6172
 L  constraint1_6175
 L  constraint1_6171
 L  constraint1_6170
 L  constraint1_6173
 L  constraint1_4150
 L  constraint1_4154
 L  constraint1_4152
 L  constraint1_4153
 L  constraint1_4151
 L  constraint1_5730
 L  constraint1_981
 L  constraint2_3190
 L  constraint2_3191
 L  constraint2_3192
 L  constraint2_3193
 L  constraint2_6170
 L  constraint2_6171
 L  constraint2_6172
 L  constraint2_6173
 L  constraint2_5000
 L  constraint2_5001
 L  constraint2_5002
 L  constraint2_5003
 L  constraint2_4150
 L  constraint2_4151
 L  constraint2_4152
 L  constraint2_4153
 L  constraint2_5730
 L  constraint2_5731
 L  constraint2_5732
 L  constraint2_5733
 L  constraint2_5340
 L  constraint2_5341
 L  constraint2_5342
 L  constraint2_5343
 L  constraint2_980
 L  constraint2_981
 L  constraint2_982
 L  constraint2_983
COLUMNS
    MARKER    'MARKER'                 'INTORG'
    Z_319_2_0  OBJ       -2.0385885644909297e-04
    Z_319_2_0  constraint1_3192  1
    Z_319_2_0  constraint2_3190  1
    Z_319_2_1  OBJ       -6.5555382448403293e-04
    Z_319_2_1  constraint1_3192  1
    Z_319_2_1  constraint2_3191  1
    Z_319_2_2  OBJ       -3.7656261870940455e-02
    Z_319_2_2  constraint1_3192  1
    Z_319_2_2  constraint2_3192  1
    Z_319_2_3  OBJ       -1.2357207545974680e-01
    Z_319_2_3  constraint1_3192  1
    Z_319_2_3  constraint2_3193  1
    Z_319_2_4  OBJ       -7.3791224998837968e-01
    Z_319_2_4  constraint1_3192  1
    Z_319_5_0  OBJ       -1.5573452727000512e-02
    Z_319_5_0  constraint1_3195  1
    Z_319_5_0  constraint2_3190  1
    Z_319_5_1  OBJ       -3.3957725238373065e-02
    Z_319_5_1  constraint1_3195  1
    Z_319_5_1  constraint2_3191  1
    Z_319_5_2  OBJ       -2.4662802724621526e-03
    Z_319_5_2  constraint1_3195  1
    Z_319_5_2  constraint2_3192  1
    Z_319_5_3  OBJ       -2.8357964001075181e-02
    Z_319_5_3  constraint1_3195  1
    Z_319_5_3  constraint2_3193  1
    Z_319_5_4  OBJ       -8.1964457776108901e-01
    Z_319_5_4  constraint1_3195  1
    Z_319_4_0  OBJ       -2.0385885644909297e-04
    Z_319_4_0  constraint1_3194  1
    Z_319_4_0  constraint2_3190  1
    Z_319_4_1  OBJ       -6.5555382448403293e-04
    Z_319_4_1  constraint1_3194  1
    Z_319_4_1  constraint2_3191  1
    Z_319_4_2  OBJ       -3.7656261870940455e-02
    Z_319_4_2  constraint1_3194  1
    Z_319_4_2  constraint2_3192  1
    Z_319_4_3  OBJ       -1.2357207545974680e-01
    Z_319_4_3  constraint1_3194  1
    Z_319_4_3  constraint2_3193  1
    Z_319_4_4  OBJ       -7.3791224998837968e-01
    Z_319_4_4  constraint1_3194  1
    Z_319_0_0  OBJ       -1.1524084078537880e-03
    Z_319_0_0  constraint1_3190  1
    Z_319_0_0  constraint2_3190  1
    Z_319_0_1  OBJ       -1.2050128310313048e-03
    Z_319_0_1  constraint1_3190  1
    Z_319_0_1  constraint2_3191  1
    Z_319_0_2  OBJ       -4.4592390798158773e-03
    Z_319_0_2  constraint1_3190  1
    Z_319_0_2  constraint2_3192  1
    Z_319_0_3  OBJ       -5.8911088926873511e-03
    Z_319_0_3  constraint1_3190  1
    Z_319_0_3  constraint2_3193  1
    Z_319_0_4  OBJ       -8.8729223078861175e-01
    Z_319_0_4  constraint1_3190  1
    Z_319_3_0  OBJ       -1.2454576105567966e-02
    Z_319_3_0  constraint1_3193  1
    Z_319_3_0  constraint2_3190  1
    Z_319_3_1  OBJ       -2.1527660390189014e-02
    Z_319_3_1  constraint1_3193  1
    Z_319_3_1  constraint2_3191  1
    Z_319_3_2  OBJ       -4.4405663659247280e-03
    Z_319_3_2  constraint1_3193  1
    Z_319_3_2  constraint2_3192  1
    Z_319_3_3  OBJ       -4.8710863390833449e-02
    Z_319_3_3  constraint1_3193  1
    Z_319_3_3  constraint2_3193  1
    Z_319_3_4  OBJ       -8.1286633374748485e-01
    Z_319_3_4  constraint1_3193  1
    Z_319_1_0  OBJ       -4.0602156865356016e-03
    Z_319_1_0  constraint1_3191  1
    Z_319_1_0  constraint2_3190  1
    Z_319_1_1  OBJ       -4.1079661559391883e-02
    Z_319_1_1  constraint1_3191  1
    Z_319_1_1  constraint2_3191  1
    Z_319_1_2  OBJ       -2.7491089067482592e-02
    Z_319_1_2  constraint1_3191  1
    Z_319_1_2  constraint2_3192  1
    Z_319_1_3  OBJ       -8.1582975340162706e-02
    Z_319_1_3  constraint1_3191  1
    Z_319_1_3  constraint2_3193  1
    Z_319_1_4  OBJ       -7.4578605834642697e-01
    Z_319_1_4  constraint1_3191  1
    Z_617_4_0  OBJ       -2.4144932906552036e-02
    Z_617_4_0  constraint1_6174  1
    Z_617_4_0  constraint2_6170  1
    Z_617_4_1  OBJ       -9.9882032636464356e-03
    Z_617_4_1  constraint1_6174  1
    Z_617_4_1  constraint2_6171  1
    Z_617_4_2  OBJ       -6.6269630669684616e-03
    Z_617_4_2  constraint1_6174  1
    Z_617_4_2  constraint2_6172  1
    Z_617_4_3  OBJ       -1.4535505253479708e-01
    Z_617_4_3  constraint1_6174  1
    Z_617_4_3  constraint2_6173  1
    Z_617_4_4  OBJ       -7.1388484822803611e-01
    Z_617_4_4  constraint1_6174  1
    Z_617_2_0  OBJ       -4.0746734807705380e-03
    Z_617_2_0  constraint1_6172  1
    Z_617_2_0  constraint2_6170  1
    Z_617_2_1  OBJ       -9.8987662589132466e-04
    Z_617_2_1  constraint1_6172  1
    Z_617_2_1  constraint2_6171  1
    Z_617_2_2  OBJ       -2.7461826759632101e-03
    Z_617_2_2  constraint1_6172  1
    Z_617_2_2  constraint2_6172  1
    Z_617_2_3  OBJ       -7.7808958328339450e-01
    Z_617_2_3  constraint1_6172  1
    Z_617_2_3  constraint2_6173  1
    Z_617_2_4  OBJ       -1.1409968393398033e-01
    Z_617_2_4  constraint1_6172  1
    Z_617_5_0  OBJ       -4.0746734807705380e-03
    Z_617_5_0  constraint1_6175  1
    Z_617_5_0  constraint2_6170  1
    Z_617_5_1  OBJ       -9.8987662589132466e-04
    Z_617_5_1  constraint1_6175  1
    Z_617_5_1  constraint2_6171  1
    Z_617_5_2  OBJ       -2.7461826759632101e-03
    Z_617_5_2  constraint1_6175  1
    Z_617_5_2  constraint2_6172  1
    Z_617_5_3  OBJ       -7.7808958328339450e-01
    Z_617_5_3  constraint1_6175  1
    Z_617_5_3  constraint2_6173  1
    Z_617_5_4  OBJ       -1.1409968393398033e-01
    Z_617_5_4  constraint1_6175  1
    Z_617_1_0  OBJ       -5.7382498978375933e-03
    Z_617_1_0  constraint1_6171  1
    Z_617_1_0  constraint2_6170  1
    Z_617_1_1  OBJ       -2.1855671457062268e-03
    Z_617_1_1  constraint1_6171  1
    Z_617_1_1  constraint2_6171  1
    Z_617_1_2  OBJ       -2.4780026417484616e-03
    Z_617_1_2  constraint1_6171  1
    Z_617_1_2  constraint2_6172  1
    Z_617_1_3  OBJ       -7.1511788054566235e-03
    Z_617_1_3  constraint1_6171  1
    Z_617_1_3  constraint2_6173  1
    Z_617_1_4  OBJ       -8.8244700150925104e-01
    Z_617_1_4  constraint1_6171  1
    Z_617_0_0  OBJ       -2.1915633905621071e-03
    Z_617_0_0  constraint1_6170  1
    Z_617_0_0  constraint2_6170  1
    Z_617_0_1  OBJ       -6.0966194686671573e-04
    Z_617_0_1  constraint1_6170  1
    Z_617_0_1  constraint2_6171  1
    Z_617_0_2  OBJ       -4.9990855573123919e-03
    Z_617_0_2  constraint1_6170  1
    Z_617_0_2  constraint2_6172  1
    Z_617_0_3  OBJ       -8.3559334959533941e-03
    Z_617_0_3  constraint1_6170  1
    Z_617_0_3  constraint2_6173  1
    Z_617_0_4  OBJ       -8.8384375560930539e-01
    Z_617_0_4  constraint1_6170  1
    Z_617_3_0  OBJ       -4.0746734807705380e-03
    Z_617_3_0  constraint1_6173  1
    Z_617_3_0  constraint2_6170  1
    Z_617_3_1  OBJ       -9.8987662589132466e-04
    Z_617_3_1  constraint1_6173  1
    Z_617_3_1  constraint2_6171  1
    Z_617_3_2  OBJ       -2.7461826759632101e-03
    Z_617_3_2  constraint1_6173  1
    Z_617_3_2  constraint2_6172  1
    Z_617_3_3  OBJ       -7.7808958328339450e-01
    Z_617_3_3  constraint1_6173  1
    Z_617_3_3  constraint2_6173  1
    Z_617_3_4  OBJ       -1.1409968393398033e-01
    Z_617_3_4  constraint1_6173  1
    Z_415_0_0  OBJ       -1.1417730528661023e-03
    Z_415_0_0  constraint1_4150  1
    Z_415_0_0  constraint2_4150  1
    Z_415_0_1  OBJ       -7.3316979529440324e-04
    Z_415_0_1  constraint1_4150  1
    Z_415_0_1  constraint2_4151  1
    Z_415_0_2  OBJ       -1.7193999897951364e-02
    Z_415_0_2  constraint1_4150  1
    Z_415_0_2  constraint2_4152  1
    Z_415_0_3  OBJ       -6.4413429626983110e-01
    Z_415_0_3  constraint1_4150  1
    Z_415_0_3  constraint2_4153  1
    Z_415_0_4  OBJ       -2.3679676098405691e-01
    Z_415_0_4  constraint1_4150  1
    Z_415_4_0  OBJ       -1.4486594779448660e-02
    Z_415_4_0  constraint1_4154  1
    Z_415_4_0  constraint2_4150  1
    Z_415_4_1  OBJ       -4.0031802792187661e-02
    Z_415_4_1  constraint1_4154  1
    Z_415_4_1  constraint2_4151  1
    Z_415_4_2  OBJ       -1.6990647460594213e-02
    Z_415_4_2  constraint1_4154  1
    Z_415_4_2  constraint2_4152  1
    Z_415_4_3  OBJ       -1.7624091218509855e-01
    Z_415_4_3  constraint1_4154  1
    Z_415_4_3  constraint2_4153  1
    Z_415_4_4  OBJ       -6.5225004278267096e-01
    Z_415_4_4  constraint1_4154  1
    Z_415_2_0  OBJ       -5.8752021293426420e-03
    Z_415_2_0  constraint1_4152  1
    Z_415_2_0  constraint2_4150  1
    Z_415_2_1  OBJ       -6.0985352456391553e-03
    Z_415_2_1  constraint1_4152  1
    Z_415_2_1  constraint2_4151  1
    Z_415_2_2  OBJ       -1.2259253200751821e-02
    Z_415_2_2  constraint1_4152  1
    Z_415_2_2  constraint2_4152  1
    Z_415_2_3  OBJ       -3.1545423343871026e-01
    Z_415_2_3  constraint1_4152  1
    Z_415_2_3  constraint2_4153  1
    Z_415_2_4  OBJ       -5.6031277598555618e-01
    Z_415_2_4  constraint1_4152  1
    Z_415_3_0  OBJ       -1.4486594779448660e-02
    Z_415_3_0  constraint1_4153  1
    Z_415_3_0  constraint2_4150  1
    Z_415_3_1  OBJ       -4.0031802792187661e-02
    Z_415_3_1  constraint1_4153  1
    Z_415_3_1  constraint2_4151  1
    Z_415_3_2  OBJ       -1.6990647460594213e-02
    Z_415_3_2  constraint1_4153  1
    Z_415_3_2  constraint2_4152  1
    Z_415_3_3  OBJ       -1.7624091218509855e-01
    Z_415_3_3  constraint1_4153  1
    Z_415_3_3  constraint2_4153  1
    Z_415_3_4  OBJ       -6.5225004278267096e-01
    Z_415_3_4  constraint1_4153  1
    Z_415_1_0  OBJ       -1.4486594779448660e-02
    Z_415_1_0  constraint1_4151  1
    Z_415_1_0  constraint2_4150  1
    Z_415_1_1  OBJ       -4.0031802792187661e-02
    Z_415_1_1  constraint1_4151  1
    Z_415_1_1  constraint2_4151  1
    Z_415_1_2  OBJ       -1.6990647460594213e-02
    Z_415_1_2  constraint1_4151  1
    Z_415_1_2  constraint2_4152  1
    Z_415_1_3  OBJ       -1.7624091218509855e-01
    Z_415_1_3  constraint1_4151  1
    Z_415_1_3  constraint2_4153  1
    Z_415_1_4  OBJ       -6.5225004278267096e-01
    Z_415_1_4  constraint1_4151  1
    Z_573_0_0  OBJ       -2.1764952175080251e-03
    Z_573_0_0  constraint1_5730  1
    Z_573_0_0  constraint2_5730  1
    Z_573_0_1  OBJ       -1.8592387540163769e-03
    Z_573_0_1  constraint1_5730  1
    Z_573_0_1  constraint2_5731  1
    Z_573_0_2  OBJ       -2.1546085359359043e-03
    Z_573_0_2  constraint1_5730  1
    Z_573_0_2  constraint2_5732  1
    Z_573_0_3  OBJ       -6.4435711956435338e-01
    Z_573_0_3  constraint1_5730  1
    Z_573_0_3  constraint2_5733  1
    Z_573_0_4  OBJ       -2.4945253792818656e-01
    Z_573_0_4  constraint1_5730  1
    Z_98_1_0  OBJ       -2.2000507081540947e-03
    Z_98_1_0  constraint1_981  1
    Z_98_1_0  constraint2_980  1
    Z_98_1_1  OBJ       -2.3593093000873187e-03
    Z_98_1_1  constraint1_981  1
    Z_98_1_1  constraint2_981  1
    Z_98_1_2  OBJ       -8.1613051340950671e-01
    Z_98_1_2  constraint1_981  1
    Z_98_1_2  constraint2_982  1
    Z_98_1_3  OBJ       -1.7612870558352904e-03
    Z_98_1_3  constraint1_981  1
    Z_98_1_3  constraint2_983  1
    Z_98_1_4  OBJ       -7.7548839526416571e-02
    Z_98_1_4  constraint1_981  1
    MARKER    'MARKER'                 'INTEND'
RHS
    RHS1      constraint1_3192  1
    RHS1      constraint1_3195  1
    RHS1      constraint1_3194  1
    RHS1      constraint1_3190  1
    RHS1      constraint1_3193  1
    RHS1      constraint1_3191  1
    RHS1      constraint1_6174  1
    RHS1      constraint1_6172  1
    RHS1      constraint1_6175  1
    RHS1      constraint1_6171  1
    RHS1      constraint1_6170  1
    RHS1      constraint1_6173  1
    RHS1      constraint1_4150  1
    RHS1      constraint1_4154  1
    RHS1      constraint1_4152  1
    RHS1      constraint1_4153  1
    RHS1      constraint1_4151  1
    RHS1      constraint1_5730  1
    RHS1      constraint1_981  1
    RHS1      constraint2_3190  1
    RHS1      constraint2_3191  1
    RHS1      constraint2_3192  1
    RHS1      constraint2_3193  1
    RHS1      constraint2_6170  1
    RHS1      constraint2_6171  1
    RHS1      constraint2_6172  1
    RHS1      constraint2_6173  1
    RHS1      constraint2_5000  1
    RHS1      constraint2_5001  1
    RHS1      constraint2_5002  1
    RHS1      constraint2_5003  1
    RHS1      constraint2_4150  1
    RHS1      constraint2_4151  1
    RHS1      constraint2_4152  1
    RHS1      constraint2_4153  1
    RHS1      constraint2_5730  1
    RHS1      constraint2_5731  1
    RHS1      constraint2_5732  1
    RHS1      constraint2_5733  1
    RHS1      constraint2_5340  1
    RHS1      constraint2_5341  1
    RHS1      constraint2_5342  1
    RHS1      constraint2_5343  1
    RHS1      constraint2_980  1
    RHS1      constraint2_981  1
    RHS1      constraint2_982  1
    RHS1      constraint2_983  1
BOUNDS
 UP BND1      Z_319_2_0  1
 UP BND1      Z_319_2_1  1
 UP BND1      Z_319_2_2  1
 UP BND1      Z_319_2_3  1
 UP BND1      Z_319_2_4  1
 UP BND1      Z_319_5_0  1
 UP BND1      Z_319_5_1  1
 UP BND1      Z_319_5_2  1
 UP BND1      Z_319_5_3  1
 UP BND1      Z_319_5_4  1
 UP BND1      Z_319_4_0  1
 UP BND1      Z_319_4_1  1
 UP BND1      Z_319_4_2  1
 UP BND1      Z_319_4_3  1
 UP BND1      Z_319_4_4  1
 UP BND1      Z_319_0_0  1
 UP BND1      Z_319_0_1  1
 UP BND1      Z_319_0_2  1
 UP BND1      Z_319_0_3  1
 UP BND1      Z_319_0_4  1
 UP BND1      Z_319_3_0  1
 UP BND1      Z_319_3_1  1
 UP BND1      Z_319_3_2  1
 UP BND1      Z_319_3_3  1
 UP BND1      Z_319_3_4  1
 UP BND1      Z_319_1_0  1
 UP BND1      Z_319_1_1  1
 UP BND1      Z_319_1_2  1
 UP BND1      Z_319_1_3  1
 UP BND1      Z_319_1_4  1
 UP BND1      Z_617_4_0  1
 UP BND1      Z_617_4_1  1
 UP BND1      Z_617_4_2  1
 UP BND1      Z_617_4_3  1
 UP BND1      Z_617_4_4  1
 UP BND1      Z_617_2_0  1
 UP BND1      Z_617_2_1  1
 UP BND1      Z_617_2_2  1
 UP BND1      Z_617_2_3  1
 UP BND1      Z_617_2_4  1
 UP BND1      Z_617_5_0  1
 UP BND1      Z_617_5_1  1
 UP BND1      Z_617_5_2  1
 UP BND1      Z_617_5_3  1
 UP BND1      Z_617_5_4  1
 UP BND1      Z_617_1_0  1
 UP BND1      Z_617_1_1  1
 UP BND1      Z_617_1_2  1
 UP BND1      Z_617_1_3  1
 UP BND1      Z_617_1_4  1
 UP BND1      Z_617_0_0  1
 UP BND1      Z_617_0_1  1
 UP BND1      Z_617_0_2  1
 UP BND1      Z_617_0_3  1
 UP BND1      Z_617_0_4  1
 UP BND1      Z_617_3_0  1
 UP BND1      Z_617_3_1  1
 UP BND1      Z_617_3_2  1
 UP BND1      Z_617_3_3  1
 UP BND1      Z_617_3_4  1
 UP BND1      Z_415_0_0  1
 UP BND1      Z_415_0_1  1
 UP BND1      Z_415_0_2  1
 UP BND1      Z_415_0_3  1
 UP BND1      Z_415_0_4  1
 UP BND1      Z_415_4_0  1
 UP BND1      Z_415_4_1  1
 UP BND1      Z_415_4_2  1
 UP BND1      Z_415_4_3  1
 UP BND1      Z_415_4_4  1
 UP BND1      Z_415_2_0  1
 UP BND1      Z_415_2_1  1
 UP BND1      Z_415_2_2  1
 UP BND1      Z_415_2_3  1
 UP BND1      Z_415_2_4  1
 UP BND1      Z_415_3_0  1
 UP BND1      Z_415_3_1  1
 UP BND1      Z_415_3_2  1
 UP BND1      Z_415_3_3  1
 UP BND1      Z_415_3_4  1
 UP BND1      Z_415_1_0  1
 UP BND1      Z_415_1_1  1
 UP BND1      Z_415_1_2  1
 UP BND1      Z_415_1_3  1
 UP BND1      Z_415_1_4  1
 UP BND1      Z_573_0_0  1
 UP BND1      Z_573_0_1  1
 UP BND1      Z_573_0_2  1
 UP BND1      Z_573_0_3  1
 UP BND1      Z_573_0_4  1
 UP BND1      Z_98_1_0  1
 UP BND1      Z_98_1_1  1
 UP BND1      Z_98_1_2  1
 UP BND1      Z_98_1_3  1
 UP BND1      Z_98_1_4  1
QUADOBJ
    Z_319_5_0  Z_617_4_0  -3.5585582581122766e-02
    Z_319_5_0  Z_617_2_0  -2.5208962593637623e-02
    Z_319_5_0  Z_617_5_0  -2.7397876982656059e-02
    Z_319_5_0  Z_415_4_0  -3.1839059649167209e-02
    Z_319_5_0  Z_415_3_0  -3.1839059649167209e-02
    Z_319_5_0  Z_415_1_0  -3.1839059649167209e-02
    Z_319_5_0  Z_573_0_0  -3.1839059649167209e-02
    Z_319_5_0  Z_98_1_0  -7.3964497041420106e-03
    Z_319_5_1  Z_617_4_1  -3.5585582581122766e-02
    Z_319_5_1  Z_617_2_1  -2.5208962593637623e-02
    Z_319_5_1  Z_617_5_1  -2.7397876982656059e-02
    Z_319_5_1  Z_415_4_1  -3.1839059649167209e-02
    Z_319_5_1  Z_415_3_1  -3.1839059649167209e-02
    Z_319_5_1  Z_415_1_1  -3.1839059649167209e-02
    Z_319_5_1  Z_573_0_1  -3.1839059649167209e-02
    Z_319_5_1  Z_98_1_1  -7.3964497041420106e-03
    Z_319_5_2  Z_617_4_2  -3.5585582581122766e-02
    Z_319_5_2  Z_617_2_2  -2.5208962593637623e-02
    Z_319_5_2  Z_617_5_2  -2.7397876982656059e-02
    Z_319_5_2  Z_415_4_2  -3.1839059649167209e-02
    Z_319_5_2  Z_415_3_2  -3.1839059649167209e-02
    Z_319_5_2  Z_415_1_2  -3.1839059649167209e-02
    Z_319_5_2  Z_573_0_2  -3.1839059649167209e-02
    Z_319_5_2  Z_98_1_2  -7.3964497041420106e-03
    Z_319_5_3  Z_617_4_3  -3.5585582581122766e-02
    Z_319_5_3  Z_617_2_3  -2.5208962593637623e-02
    Z_319_5_3  Z_617_5_3  -2.7397876982656059e-02
    Z_319_5_3  Z_415_4_3  -3.1839059649167209e-02
    Z_319_5_3  Z_415_3_3  -3.1839059649167209e-02
    Z_319_5_3  Z_415_1_3  -3.1839059649167209e-02
    Z_319_5_3  Z_573_0_3  -3.1839059649167209e-02
    Z_319_5_3  Z_98_1_3  -7.3964497041420106e-03
    Z_319_5_4  Z_617_4_4  -3.5585582581122766e-02
    Z_319_5_4  Z_617_2_4  -2.5208962593637623e-02
    Z_319_5_4  Z_617_5_4  -2.7397876982656059e-02
    Z_319_5_4  Z_415_4_4  -3.1839059649167209e-02
    Z_319_5_4  Z_415_3_4  -3.1839059649167209e-02
    Z_319_5_4  Z_415_1_4  -3.1839059649167209e-02
    Z_319_5_4  Z_573_0_4  -3.1839059649167209e-02
    Z_319_5_4  Z_98_1_4  -7.3964497041420106e-03
    Z_319_4_0  Z_617_4_0  -3.5585582581122766e-02
    Z_319_4_0  Z_617_2_0  -4.1325554571606651e-02
    Z_319_4_0  Z_617_5_0  -2.7397876982656059e-02
    Z_319_4_0  Z_415_4_0  -2.3932591439854628e-02
    Z_319_4_0  Z_415_3_0  -2.3932591439854628e-02
    Z_319_4_0  Z_415_1_0  -2.3932591439854628e-02
    Z_319_4_0  Z_573_0_0  -2.5947182389876644e-02
    Z_319_4_0  Z_98_1_0  -7.3964497041420106e-03
    Z_319_4_1  Z_617_4_1  -3.5585582581122766e-02
    Z_319_4_1  Z_617_2_1  -4.1325554571606651e-02
    Z_319_4_1  Z_617_5_1  -2.7397876982656059e-02
    Z_319_4_1  Z_415_4_1  -2.3932591439854628e-02
    Z_319_4_1  Z_415_3_1  -2.3932591439854628e-02
    Z_319_4_1  Z_415_1_1  -2.3932591439854628e-02
    Z_319_4_1  Z_573_0_1  -2.5947182389876644e-02
    Z_319_4_1  Z_98_1_1  -7.3964497041420106e-03
    Z_319_4_2  Z_617_4_2  -3.5585582581122766e-02
    Z_319_4_2  Z_617_2_2  -4.1325554571606651e-02
    Z_319_4_2  Z_617_5_2  -2.7397876982656059e-02
    Z_319_4_2  Z_415_4_2  -2.3932591439854628e-02
    Z_319_4_2  Z_415_3_2  -2.3932591439854628e-02
    Z_319_4_2  Z_415_1_2  -2.3932591439854628e-02
    Z_319_4_2  Z_573_0_2  -2.5947182389876644e-02
    Z_319_4_2  Z_98_1_2  -7.3964497041420106e-03
    Z_319_4_3  Z_617_4_3  -3.5585582581122766e-02
    Z_319_4_3  Z_617_2_3  -4.1325554571606651e-02
    Z_319_4_3  Z_617_5_3  -2.7397876982656059e-02
    Z_319_4_3  Z_415_4_3  -2.3932591439854628e-02
    Z_319_4_3  Z_415_3_3  -2.3932591439854628e-02
    Z_319_4_3  Z_415_1_3  -2.3932591439854628e-02
    Z_319_4_3  Z_573_0_3  -2.5947182389876644e-02
    Z_319_4_3  Z_98_1_3  -7.3964497041420106e-03
    Z_319_4_4  Z_617_4_4  -3.5585582581122766e-02
    Z_319_4_4  Z_617_2_4  -4.1325554571606651e-02
    Z_319_4_4  Z_617_5_4  -2.7397876982656059e-02
    Z_319_4_4  Z_415_4_4  -2.3932591439854628e-02
    Z_319_4_4  Z_415_3_4  -2.3932591439854628e-02
    Z_319_4_4  Z_415_1_4  -2.3932591439854628e-02
    Z_319_4_4  Z_573_0_4  -2.5947182389876644e-02
    Z_319_4_4  Z_98_1_4  -7.3964497041420106e-03
    Z_319_0_0  Z_617_4_0  -0.002
    Z_319_0_0  Z_617_2_0  -0.002
    Z_319_0_0  Z_617_5_0  -0.002
    Z_319_0_0  Z_617_0_0  -1.5259611573523579e-03
    Z_319_0_0  Z_415_0_0  -1.5259611573523579e-03
    Z_319_0_0  Z_415_4_0  -1.5259611573523579e-03
    Z_319_0_0  Z_415_3_0  -2.5826446280991732e-05
    Z_319_0_0  Z_415_1_0  -2.5826446280991732e-05
    Z_319_0_0  Z_573_0_0  -1.0668075379960432e-03
    Z_319_0_0  Z_98_1_0  -7.4860260846419994e-04
    Z_319_0_1  Z_617_4_1  -0.002
    Z_319_0_1  Z_617_2_1  -0.002
    Z_319_0_1  Z_617_5_1  -0.002
    Z_319_0_1  Z_617_0_1  -1.5259611573523579e-03
    Z_319_0_1  Z_415_0_1  -1.5259611573523579e-03
    Z_319_0_1  Z_415_4_1  -1.5259611573523579e-03
    Z_319_0_1  Z_415_3_1  -2.5826446280991732e-05
    Z_319_0_1  Z_415_1_1  -2.5826446280991732e-05
    Z_319_0_1  Z_573_0_1  -1.0668075379960432e-03
    Z_319_0_1  Z_98_1_1  -7.4860260846419994e-04
    Z_319_0_2  Z_617_4_2  -0.002
    Z_319_0_2  Z_617_2_2  -0.002
    Z_319_0_2  Z_617_5_2  -0.002
    Z_319_0_2  Z_617_0_2  -1.5259611573523579e-03
    Z_319_0_2  Z_415_0_2  -1.5259611573523579e-03
    Z_319_0_2  Z_415_4_2  -1.5259611573523579e-03
    Z_319_0_2  Z_415_3_2  -2.5826446280991732e-05
    Z_319_0_2  Z_415_1_2  -2.5826446280991732e-05
    Z_319_0_2  Z_573_0_2  -1.0668075379960432e-03
    Z_319_0_2  Z_98_1_2  -7.4860260846419994e-04
    Z_319_0_3  Z_617_4_3  -0.002
    Z_319_0_3  Z_617_2_3  -0.002
    Z_319_0_3  Z_617_5_3  -0.002
    Z_319_0_3  Z_617_0_3  -1.5259611573523579e-03
    Z_319_0_3  Z_415_0_3  -1.5259611573523579e-03
    Z_319_0_3  Z_415_4_3  -1.5259611573523579e-03
    Z_319_0_3  Z_415_3_3  -2.5826446280991732e-05
    Z_319_0_3  Z_415_1_3  -2.5826446280991732e-05
    Z_319_0_3  Z_573_0_3  -1.0668075379960432e-03
    Z_319_0_3  Z_98_1_3  -7.4860260846419994e-04
    Z_319_0_4  Z_617_4_4  -0.002
    Z_319_0_4  Z_617_2_4  -0.002
    Z_319_0_4  Z_617_5_4  -0.002
    Z_319_0_4  Z_617_0_4  -1.5259611573523579e-03
    Z_319_0_4  Z_415_0_4  -1.5259611573523579e-03
    Z_319_0_4  Z_415_4_4  -1.5259611573523579e-03
    Z_319_0_4  Z_415_3_4  -2.5826446280991732e-05
    Z_319_0_4  Z_415_1_4  -2.5826446280991732e-05
    Z_319_0_4  Z_573_0_4  -1.0668075379960432e-03
    Z_319_0_4  Z_98_1_4  -7.4860260846419994e-04
    Z_319_3_0  Z_617_4_0  -9.1151569036092960e-03
    Z_319_3_0  Z_617_2_0  -6.4572119592084115e-03
    Z_319_3_0  Z_617_5_0  -7.0178968393557794e-03
    Z_319_3_0  Z_573_0_0  -2.0290935643007338e-03
    Z_319_3_1  Z_617_4_1  -9.1151569036092960e-03
    Z_319_3_1  Z_617_2_1  -6.4572119592084115e-03
    Z_319_3_1  Z_617_5_1  -7.0178968393557794e-03
    Z_319_3_1  Z_573_0_1  -2.0290935643007338e-03
    Z_319_3_2  Z_617_4_2  -9.1151569036092960e-03
    Z_319_3_2  Z_617_2_2  -6.4572119592084115e-03
    Z_319_3_2  Z_617_5_2  -7.0178968393557794e-03
    Z_319_3_2  Z_573_0_2  -2.0290935643007338e-03
    Z_319_3_3  Z_617_4_3  -9.1151569036092960e-03
    Z_319_3_3  Z_617_2_3  -6.4572119592084115e-03
    Z_319_3_3  Z_617_5_3  -7.0178968393557794e-03
    Z_319_3_3  Z_573_0_3  -2.0290935643007338e-03
    Z_319_3_4  Z_617_4_4  -9.1151569036092960e-03
    Z_319_3_4  Z_617_2_4  -6.4572119592084115e-03
    Z_319_3_4  Z_617_5_4  -7.0178968393557794e-03
    Z_319_3_4  Z_573_0_4  -2.0290935643007338e-03
    Z_319_1_0  Z_617_4_0  -9.2221856835161022e-03
    Z_319_1_0  Z_617_2_0  -6.5330315556127328e-03
    Z_319_1_0  Z_617_5_0  -7.1002999119710915e-03
    Z_319_1_0  Z_617_1_0  -1.9999999999999996e-01
    Z_319_1_0  Z_415_4_0  -1.8822287879837599e-02
    Z_319_1_0  Z_415_3_0  -1.8822287879837599e-02
    Z_319_1_0  Z_415_1_0  -1.8822287879837599e-02
    Z_319_1_0  Z_573_0_0  -4.1982509861220117e-02
    Z_319_1_0  Z_98_1_0  -4.9999999999999989e-02
    Z_319_1_1  Z_617_4_1  -9.2221856835161022e-03
    Z_319_1_1  Z_617_2_1  -6.5330315556127328e-03
    Z_319_1_1  Z_617_5_1  -7.1002999119710915e-03
    Z_319_1_1  Z_617_1_1  -1.9999999999999996e-01
    Z_319_1_1  Z_415_4_1  -1.8822287879837599e-02
    Z_319_1_1  Z_415_3_1  -1.8822287879837599e-02
    Z_319_1_1  Z_415_1_1  -1.8822287879837599e-02
    Z_319_1_1  Z_573_0_1  -4.1982509861220117e-02
    Z_319_1_1  Z_98_1_1  -4.9999999999999989e-02
    Z_319_1_2  Z_617_4_2  -9.2221856835161022e-03
    Z_319_1_2  Z_617_2_2  -6.5330315556127328e-03
    Z_319_1_2  Z_617_5_2  -7.1002999119710915e-03
    Z_319_1_2  Z_617_1_2  -1.9999999999999996e-01
    Z_319_1_2  Z_415_4_2  -1.8822287879837599e-02
    Z_319_1_2  Z_415_3_2  -1.8822287879837599e-02
    Z_319_1_2  Z_415_1_2  -1.8822287879837599e-02
    Z_319_1_2  Z_573_0_2  -4.1982509861220117e-02
    Z_319_1_2  Z_98_1_2  -4.9999999999999989e-02
    Z_319_1_3  Z_617_4_3  -9.2221856835161022e-03
    Z_319_1_3  Z_617_2_3  -6.5330315556127328e-03
    Z_319_1_3  Z_617_5_3  -7.1002999119710915e-03
    Z_319_1_3  Z_617_1_3  -1.9999999999999996e-01
    Z_319_1_3  Z_415_4_3  -1.8822287879837599e-02
    Z_319_1_3  Z_415_3_3  -1.8822287879837599e-02
    Z_319_1_3  Z_415_1_3  -1.8822287879837599e-02
    Z_319_1_3  Z_573_0_3  -4.1982509861220117e-02
    Z_319_1_3  Z_98_1_3  -4.9999999999999989e-02
    Z_319_1_4  Z_617_4_4  -9.2221856835161022e-03
    Z_319_1_4  Z_617_2_4  -6.5330315556127328e-03
    Z_319_1_4  Z_617_5_4  -7.1002999119710915e-03
    Z_319_1_4  Z_617_1_4  -1.9999999999999996e-01
    Z_319_1_4  Z_415_4_4  -1.8822287879837599e-02
    Z_319_1_4  Z_415_3_4  -1.8822287879837599e-02
    Z_319_1_4  Z_415_1_4  -1.8822287879837599e-02
    Z_319_1_4  Z_573_0_4  -4.1982509861220117e-02
    Z_319_1_4  Z_98_1_4  -4.9999999999999989e-02
    Z_617_4_0  Z_415_4_0  -2.2498547187080133e-02
    Z_617_4_0  Z_415_3_0  -2.2498547187080133e-02
    Z_617_4_0  Z_415_1_0  -2.2498547187080133e-02
    Z_617_4_0  Z_573_0_0  -2.2498547187080133e-02
    Z_617_4_0  Z_98_1_0  -1.9999999999999996e-01
    Z_617_4_1  Z_415_4_1  -2.2498547187080133e-02
    Z_617_4_1  Z_415_3_1  -2.2498547187080133e-02
    Z_617_4_1  Z_415_1_1  -2.2498547187080133e-02
    Z_617_4_1  Z_573_0_1  -2.2498547187080133e-02
    Z_617_4_1  Z_98_1_1  -1.9999999999999996e-01
    Z_617_4_2  Z_415_4_2  -2.2498547187080133e-02
    Z_617_4_2  Z_415_3_2  -2.2498547187080133e-02
    Z_617_4_2  Z_415_1_2  -2.2498547187080133e-02
    Z_617_4_2  Z_573_0_2  -2.2498547187080133e-02
    Z_617_4_2  Z_98_1_2  -1.9999999999999996e-01
    Z_617_4_3  Z_415_4_3  -2.2498547187080133e-02
    Z_617_4_3  Z_415_3_3  -2.2498547187080133e-02
    Z_617_4_3  Z_415_1_3  -2.2498547187080133e-02
    Z_617_4_3  Z_573_0_3  -2.2498547187080133e-02
    Z_617_4_3  Z_98_1_3  -1.9999999999999996e-01
    Z_617_4_4  Z_415_4_4  -2.2498547187080133e-02
    Z_617_4_4  Z_415_3_4  -2.2498547187080133e-02
    Z_617_4_4  Z_415_1_4  -2.2498547187080133e-02
    Z_617_4_4  Z_573_0_4  -2.2498547187080133e-02
    Z_617_4_4  Z_98_1_4  -1.9999999999999996e-01
    Z_617_2_0  Z_415_4_0  -1.5938056744114130e-02
    Z_617_2_0  Z_415_3_0  -1.5938056744114130e-02
    Z_617_2_0  Z_415_1_0  -1.5938056744114130e-02
    Z_617_2_0  Z_573_0_0  -3.1916772105191941e-02
    Z_617_2_0  Z_98_1_0  -1.9999999999999996e-01
    Z_617_2_1  Z_415_4_1  -1.5938056744114130e-02
    Z_617_2_1  Z_415_3_1  -1.5938056744114130e-02
    Z_617_2_1  Z_415_1_1  -1.5938056744114130e-02
    Z_617_2_1  Z_573_0_1  -3.1916772105191941e-02
    Z_617_2_1  Z_98_1_1  -1.9999999999999996e-01
    Z_617_2_2  Z_415_4_2  -1.5938056744114130e-02
    Z_617_2_2  Z_415_3_2  -1.5938056744114130e-02
    Z_617_2_2  Z_415_1_2  -1.5938056744114130e-02
    Z_617_2_2  Z_573_0_2  -3.1916772105191941e-02
    Z_617_2_2  Z_98_1_2  -1.9999999999999996e-01
    Z_617_2_3  Z_415_4_3  -1.5938056744114130e-02
    Z_617_2_3  Z_415_3_3  -1.5938056744114130e-02
    Z_617_2_3  Z_415_1_3  -1.5938056744114130e-02
    Z_617_2_3  Z_573_0_3  -3.1916772105191941e-02
    Z_617_2_3  Z_98_1_3  -1.9999999999999996e-01
    Z_617_2_4  Z_415_4_4  -1.5938056744114130e-02
    Z_617_2_4  Z_415_3_4  -1.5938056744114130e-02
    Z_617_2_4  Z_415_1_4  -1.5938056744114130e-02
    Z_617_2_4  Z_573_0_4  -3.1916772105191941e-02
    Z_617_2_4  Z_98_1_4  -1.9999999999999996e-01
    Z_617_5_0  Z_415_4_0  -1.7321970961551570e-02
    Z_617_5_0  Z_415_3_0  -1.7321970961551570e-02
    Z_617_5_0  Z_415_1_0  -1.7321970961551570e-02
    Z_617_5_0  Z_573_0_0  -1.7321970961551570e-02
    Z_617_5_0  Z_98_1_0  -1.9999999999999996e-01
    Z_617_5_1  Z_415_4_1  -1.7321970961551570e-02
    Z_617_5_1  Z_415_3_1  -1.7321970961551570e-02
    Z_617_5_1  Z_415_1_1  -1.7321970961551570e-02
    Z_617_5_1  Z_573_0_1  -1.7321970961551570e-02
    Z_617_5_1  Z_98_1_1  -1.9999999999999996e-01
    Z_617_5_2  Z_415_4_2  -1.7321970961551570e-02
    Z_617_5_2  Z_415_3_2  -1.7321970961551570e-02
    Z_617_5_2  Z_415_1_2  -1.7321970961551570e-02
    Z_617_5_2  Z_573_0_2  -1.7321970961551570e-02
    Z_617_5_2  Z_98_1_2  -1.9999999999999996e-01
    Z_617_5_3  Z_415_4_3  -1.7321970961551570e-02
    Z_617_5_3  Z_415_3_3  -1.7321970961551570e-02
    Z_617_5_3  Z_415_1_3  -1.7321970961551570e-02
    Z_617_5_3  Z_573_0_3  -1.7321970961551570e-02
    Z_617_5_3  Z_98_1_3  -1.9999999999999996e-01
    Z_617_5_4  Z_415_4_4  -1.7321970961551570e-02
    Z_617_5_4  Z_415_3_4  -1.7321970961551570e-02
    Z_617_5_4  Z_415_1_4  -1.7321970961551570e-02
    Z_617_5_4  Z_573_0_4  -1.7321970961551570e-02
    Z_617_5_4  Z_98_1_4  -1.9999999999999996e-01
    Z_617_1_0  Z_573_0_0  -4.4263970835737979e-05
    Z_617_1_0  Z_98_1_0  -2.5510204081632645e-04
    Z_617_1_1  Z_573_0_1  -4.4263970835737979e-05
    Z_617_1_1  Z_98_1_1  -2.5510204081632645e-04
    Z_617_1_2  Z_573_0_2  -4.4263970835737979e-05
    Z_617_1_2  Z_98_1_2  -2.5510204081632645e-04
    Z_617_1_3  Z_573_0_3  -4.4263970835737979e-05
    Z_617_1_3  Z_98_1_3  -2.5510204081632645e-04
    Z_617_1_4  Z_573_0_4  -4.4263970835737979e-05
    Z_617_1_4  Z_98_1_4  -2.5510204081632645e-04
    Z_617_0_0  Z_415_0_0  -1.9999999999999996e-01
    Z_617_0_0  Z_415_4_0  -1.9999999999999996e-01
    Z_617_0_0  Z_573_0_0  -5.5142941022022127e-05
    Z_617_0_1  Z_415_0_1  -1.9999999999999996e-01
    Z_617_0_1  Z_415_4_1  -1.9999999999999996e-01
    Z_617_0_1  Z_573_0_1  -5.5142941022022127e-05
    Z_617_0_2  Z_415_0_2  -1.9999999999999996e-01
    Z_617_0_2  Z_415_4_2  -1.9999999999999996e-01
    Z_617_0_2  Z_573_0_2  -5.5142941022022127e-05
    Z_617_0_3  Z_415_0_3  -1.9999999999999996e-01
    Z_617_0_3  Z_415_4_3  -1.9999999999999996e-01
    Z_617_0_3  Z_573_0_3  -5.5142941022022127e-05
    Z_617_0_4  Z_415_0_4  -1.9999999999999996e-01
    Z_617_0_4  Z_415_4_4  -1.9999999999999996e-01
    Z_617_0_4  Z_573_0_4  -5.5142941022022127e-05
    Z_415_0_0  Z_573_0_0  -5.5142941022022127e-05
    Z_415_0_1  Z_573_0_1  -5.5142941022022127e-05
    Z_415_0_2  Z_573_0_2  -5.5142941022022127e-05
    Z_415_0_3  Z_573_0_3  -5.5142941022022127e-05
    Z_415_0_4  Z_573_0_4  -5.5142941022022127e-05
    Z_415_4_0  Z_573_0_0  -5.0616506343839837e-02
    Z_415_4_1  Z_573_0_1  -5.0616506343839837e-02
    Z_415_4_2  Z_573_0_2  -5.0616506343839837e-02
    Z_415_4_3  Z_573_0_3  -5.0616506343839837e-02
    Z_415_4_4  Z_573_0_4  -5.0616506343839837e-02
    Z_415_3_0  Z_573_0_0  -5.7991537875603495e-02
    Z_415_3_1  Z_573_0_1  -5.7991537875603495e-02
    Z_415_3_2  Z_573_0_2  -5.7991537875603495e-02
    Z_415_3_3  Z_573_0_3  -5.7991537875603495e-02
    Z_415_3_4  Z_573_0_4  -5.7991537875603495e-02
    Z_415_1_0  Z_573_0_0  -5.3690913312411701e-02
    Z_415_1_1  Z_573_0_1  -5.3690913312411701e-02
    Z_415_1_2  Z_573_0_2  -5.3690913312411701e-02
    Z_415_1_3  Z_573_0_3  -5.3690913312411701e-02
    Z_415_1_4  Z_573_0_4  -5.3690913312411701e-02
    Z_573_0_0  Z_98_1_0  -4.0759464901922416e-04
    Z_573_0_1  Z_98_1_1  -4.0759464901922416e-04
    Z_573_0_2  Z_98_1_2  -4.0759464901922416e-04
    Z_573_0_3  Z_98_1_3  -4.0759464901922416e-04
    Z_573_0_4  Z_98_1_4  -4.0759464901922416e-04
ENDATA
